
Gurobi 10.0.0 (win64) logging started Fri Apr 12 10:07:51 2024

Set parameter LogFile to value "C:\Users\ealvarezq\Documents\GitHub\Comillas\Models\JointResearch\05. Models\06.Benchmarking\K.Investments_per_hour\IEEE118_mod1_ByStages_nc80/openStarNet_IEEE118_mod1_ByStages_nc80.log"
Set parameter Method to value 2
Set parameter MIPFocus to value 1
Set parameter Presolve to value 2
Set parameter RINS to value 100
Set parameter MIPGap to value 0.01
Set parameter Threads to value 9
Set parameter TimeLimit to value 259200
Set parameter IterationLimit to value 760000000
Gurobi Optimizer version 10.0.0 build v10.0.0rc2 (win64)

CPU model: Intel(R) Core(TM) i7-8700 CPU @ 3.20GHz, instruction set [SSE2|AVX|AVX2]
Thread count: 6 physical cores, 12 logical processors, using up to 9 threads

Optimize a model with 113684 rows, 83983 columns and 292703 nonzeros
Model fingerprint: 0xab73a829
Variable types: 83949 continuous, 34 integer (34 binary)
Coefficient statistics:
  Matrix range     [2e-03, 9e+03]
  Objective range  [1e+00, 1e+00]
  Bounds range     [1e-04, 3e+00]
  RHS range        [2e-04, 3e+00]
Presolve removed 76919 rows and 38775 columns
Presolve time: 0.51s
Presolved: 36765 rows, 45208 columns, 134420 nonzeros
Variable types: 45174 continuous, 34 integer (34 binary)
Root relaxation presolved: 36765 rows, 45208 columns, 134420 nonzeros

Root barrier log...

Ordering time: 0.01s

Barrier statistics:
 Dense cols : 34
 AA' NZ     : 1.666e+05
 Factor NZ  : 6.449e+05 (roughly 40 MB of memory)
 Factor Ops : 1.348e+07 (less than 1 second per iteration)
 Threads    : 8

                  Objective                Residual
Iter       Primal          Dual         Primal    Dual     Compl     Time
   0   8.92021382e+06 -7.38945139e+08  1.56e+01 1.15e+03  3.03e+04     1s
   1   2.12816146e+06 -2.83766995e+08  3.43e+00 1.68e-08  6.25e+03     1s
   2   5.35246432e+05 -1.44217736e+08  5.99e-01 1.63e-08  1.82e+03     1s
   3   3.27723548e+05 -3.53890247e+07  1.93e-01 2.71e-09  4.06e+02     1s
   4   2.10114433e+05 -5.22480837e+06  1.65e-02 5.32e-10  5.21e+01     1s
   5   1.37693354e+05 -1.43572590e+06  5.11e-03 1.35e-10  1.47e+01     1s
   6   7.35642294e+04 -1.09320929e+06  1.89e-03 1.01e-10  1.08e+01     1s
   7   3.43640615e+04 -2.17112453e+05  5.89e-04 1.61e-11  2.32e+00     1s
   8   1.27708512e+04 -5.57994309e+04  1.17e-04 5.91e-12  6.32e-01     1s
   9   7.75682583e+03 -2.37614468e+04  5.15e-05 4.94e-12  2.91e-01     1s
  10   4.34383314e+03 -8.73564187e+03  1.93e-05 4.30e-12  1.21e-01     1s
  11   2.92567297e+03 -2.27728537e+03  9.85e-06 2.62e-12  4.80e-02     1s
  12   2.02264105e+03 -1.07021926e+03  5.00e-06 5.78e-12  2.85e-02     1s
  13   1.68611169e+03 -1.41785078e+02  3.34e-06 4.94e-12  1.69e-02     1s
  14   1.47480569e+03  2.83930312e+02  2.36e-06 7.73e-12  1.10e-02     1s
  15   1.24128795e+03  4.72323685e+02  1.31e-06 4.44e-12  7.09e-03     1s
  16   1.13307838e+03  6.35580260e+02  8.41e-07 3.76e-12  4.59e-03     1s
  17   1.05114018e+03  7.78039927e+02  4.94e-07 2.28e-12  2.52e-03     1s
  18   9.94201832e+02  8.73203854e+02  2.58e-07 3.70e-12  1.12e-03     1s
  19   9.65837490e+02  9.00614372e+02  1.46e-07 1.89e-12  6.01e-04     1s
  20   9.44432663e+02  9.10202205e+02  6.22e-08 5.04e-12  3.16e-04     1s
  21   9.39525647e+02  9.17628829e+02  4.39e-08 4.67e-12  2.02e-04     1s
  22   9.32988099e+02  9.21343978e+02  1.97e-08 1.91e-12  1.07e-04     1s
  23   9.30089238e+02  9.24104626e+02  9.16e-09 2.58e-12  5.52e-05     1s
  24   9.28745759e+02  9.25736139e+02  4.45e-09 3.59e-12  2.77e-05     1s
  25   9.28133905e+02  9.26780294e+02  2.35e-09 5.19e-12  1.25e-05     1s
  26   9.27659191e+02  9.27114014e+02  1.92e-09 6.57e-12  5.03e-06     1s
  27   9.27455354e+02  9.27338580e+02  3.46e-09 6.94e-12  1.08e-06     1s
  28   9.27430805e+02  9.27416271e+02  3.50e-09 9.21e-12  1.34e-07     1s
  29   9.27426770e+02  9.27422732e+02  8.71e-10 5.18e-12  3.72e-08     2s
  30   9.27425556e+02  9.27424804e+02  1.05e-09 6.58e-12  6.94e-09     2s
  31   9.27425322e+02  9.27425297e+02  1.03e-09 3.71e-12  2.25e-10     2s
  32   9.27425316e+02  9.27425315e+02  1.27e-09 5.74e-12  7.63e-13     2s

Barrier solved model in 32 iterations and 1.56 seconds (1.36 work units)
Optimal objective 9.27425316e+02


Root relaxation: objective 9.274253e+02, 3230 iterations, 1.41 seconds (1.31 work units)

    Nodes    |    Current Node    |     Objective Bounds      |     Work
 Expl Unexpl |  Obj  Depth IntInf | Incumbent    BestBd   Gap | It/Node Time

     0     0  927.42532    0   23          -  927.42532      -     -    2s
H    0     0                    4450.2887815  927.42532  79.2%     -    4s
H    0     0                    2036.7438631  927.42532  54.5%     -    5s
     0     0  948.28146    0   24 2036.74386  948.28146  53.4%     -    8s
H    0     0                    1141.5502208  948.28146  16.9%     -    9s
     0     0  948.52239    0   24 1141.55022  948.52239  16.9%     -    9s
     0     0  948.52239    0   24 1141.55022  948.52239  16.9%     -    9s
     0     0  948.52239    0   24 1141.55022  948.52239  16.9%     -    9s
     0     0  951.52458    0   23 1141.55022  951.52458  16.6%     -   10s
     0     0  951.57004    0   22 1141.55022  951.57004  16.6%     -   11s
     0     0  957.73459    0   21 1141.55022  957.73459  16.1%     -   13s
     0     0  957.73459    0   21 1141.55022  957.73459  16.1%     -   13s
     0     0  963.68898    0   21 1141.55022  963.68898  15.6%     -   15s
     0     0  963.68898    0   21 1141.55022  963.68898  15.6%     -   16s
H    0     0                    1084.5605504  963.68898  11.1%     -  165s
     0     2  963.68898    0   21 1084.56055  963.68898  11.1%     -  166s
     3     8 1010.82109    2   22 1084.56055  971.37416  10.4%  2349  171s
     7    12     cutoff    3      1084.56055  980.68507  9.58%  2289  176s
    15    17  991.84259    4   17 1084.56055  986.86906  9.01%  1969  182s
    24    24  996.59292    5   18 1084.56055  991.87399  8.55%  1773  187s
    42    34 1013.37426    7   17 1084.56055  991.87399  8.55%  1465  192s
    51    41 1025.32474    8   16 1084.56055  991.87399  8.55%  1400  197s
    60    49 1036.91117    9   15 1084.56055  991.87399  8.55%  1319  203s
    70    54 1037.12153   10   14 1084.56055  991.87399  8.55%  1345  205s
    97    55 1082.29799   14    9 1084.56055  991.87399  8.55%  1171  210s
   118    51     cutoff   16      1084.56055  996.60526  8.11%  1022  215s
   156    60 1070.94278    7   16 1084.56055  996.60526  8.11%   963  222s
   173    61 1072.88446    8   14 1084.56055  996.60526  8.11%   923  226s
   194    61 1075.64229    9   13 1084.56055  996.60526  8.11%   897  233s
   210    68 1082.03785   10   12 1084.56055 1007.46677  7.11%   897  236s
   236    65 1015.77443    7   15 1084.56055 1008.32987  7.03%   848  241s
   263    66     cutoff    9      1084.56055 1008.32987  7.03%   844  249s
   288    72 1030.86155    8   16 1084.56055 1008.32987  7.03%   840  252s
   310    75 1044.37077    9   14 1084.56055 1008.32987  7.03%   808  256s
   348    75 1045.74476   10   12 1084.56055 1008.32987  7.03%   754  260s
   431    84 1073.86251   13   10 1084.56055 1013.38636  6.56%   671  269s
   472    88 1038.56802    8   14 1084.56055 1019.62796  5.99%   660  274s
   506    90 1040.80318    9   13 1084.56055 1019.62796  5.99%   643  283s
   561    99     cutoff   12      1084.56055 1019.62796  5.99%   638  289s
   614   105     cutoff   12      1084.56055 1019.62796  5.99%   617  294s
   670    96 1072.30308   15    7 1084.56055 1019.62796  5.99%   594  300s
   731    84 1078.46070   12   11 1084.56055 1029.48306  5.08%   577  306s
   792    60 1046.59983   11   11 1084.56055 1031.88765  4.86%   560  313s
H  796    60                    1083.5815355 1031.88765  4.77%   559  313s
   870    42     cutoff   13      1083.58154 1040.11301  4.01%   538  320s
*  915    42              21    1081.9785213 1047.46057  3.19%   529  320s
  1009     0     cutoff   14      1081.97852 1063.28283  1.73%   504  327s

Cutting planes:
  Gomory: 3
  Implied bound: 179
  MIR: 361
  RLT: 1

Explored 1066 nodes (525930 simplex iterations) in 327.26 seconds (558.14 work units)
Thread count was 9 (of 12 available processors)

Solution count 6: 1081.98 1083.58 1084.56 ... 4450.29

Optimal solution found (tolerance 1.00e-02)
Best objective 1.081978521253e+03, best bound 1.081978521253e+03, gap 0.0000%

Gurobi 10.0.0 (win64) logging started Fri Apr 12 11:11:31 2024

Set parameter LogFile to value "C:\Users\ealvarezq\Documents\GitHub\Comillas\Models\JointResearch\05. Models\06.Benchmarking\K.Investments_per_hour\IEEE118_mod1_ByStages_nc80/openStarNet_IEEE118_mod1_ByStages_nc80.log"
Set parameter Method to value 2
Set parameter MIPFocus to value 1
Set parameter Presolve to value 2
Set parameter RINS to value 100
Set parameter MIPGap to value 0.01
Set parameter Threads to value 9
Set parameter TimeLimit to value 259200
Set parameter IterationLimit to value 760000000
Gurobi Optimizer version 10.0.0 build v10.0.0rc2 (win64)

CPU model: Intel(R) Core(TM) i7-8700 CPU @ 3.20GHz, instruction set [SSE2|AVX|AVX2]
Thread count: 6 physical cores, 12 logical processors, using up to 9 threads

Optimize a model with 113684 rows, 83949 columns and 281789 nonzeros
Model fingerprint: 0x1cbf7e0d
Coefficient statistics:
  Matrix range     [2e-03, 9e+03]
  Objective range  [1e+00, 1e+00]
  Bounds range     [1e-04, 3e+00]
  RHS range        [2e-04, 3e+02]
Presolve removed 84617 rows and 36680 columns
Presolve time: 0.16s
Presolved: 29067 rows, 47448 columns, 113444 nonzeros

Ordering time: 0.01s

Barrier statistics:
 AA' NZ     : 9.569e+04
 Factor NZ  : 3.809e+05 (roughly 34 MB of memory)
 Factor Ops : 5.473e+06 (less than 1 second per iteration)
 Threads    : 9

                  Objective                Residual
Iter       Primal          Dual         Primal    Dual     Compl     Time
   0   1.54357696e+07 -3.75308663e+08  9.36e+01 8.68e+01  1.44e+04     0s
   1   1.70817502e+06 -1.12867327e+08  9.13e+00 1.59e-12  1.89e+03     0s
   2   4.13575567e+05 -2.06640294e+07  1.45e+00 1.36e-12  2.83e+02     0s
   3   1.64188718e+05 -2.62144595e+06  3.46e-02 1.36e-12  2.77e+01     0s
   4   6.33856577e+04 -6.24557733e+05  3.80e-03 1.14e-12  6.66e+00     0s
   5   2.40124632e+04 -1.29288698e+05  9.14e-04 3.98e-13  1.48e+00     0s
   6   1.02674082e+04 -4.26284419e+04  2.42e-04 2.67e-13  5.10e-01     0s
   7   6.71143743e+03 -1.84168159e+04  1.24e-04 3.88e-13  2.42e-01     0s
   8   4.08668529e+03 -7.58895111e+03  5.21e-05 2.98e-13  1.13e-01     0s
   9   3.15385858e+03 -3.19092236e+03  3.31e-05 2.85e-13  6.12e-02     0s
  10   2.31343992e+03 -1.32756722e+03  1.82e-05 2.63e-13  3.51e-02     0s
  11   1.86903168e+03 -3.15512287e+02  1.10e-05 3.21e-13  2.11e-02     0s
  12   1.62017315e+03  4.16139634e+02  7.28e-06 2.85e-13  1.16e-02     0s
  13   1.41093241e+03  6.40602961e+02  4.31e-06 2.69e-13  7.43e-03     0s
  14   1.26299139e+03  8.65857211e+02  2.28e-06 2.14e-13  3.83e-03     0s
  15   1.17305429e+03  9.96424271e+02  1.10e-06 3.09e-13  1.70e-03     0s
  16   1.12232161e+03  1.03437686e+03  4.58e-07 3.01e-13  8.48e-04     0s
  17   1.11005388e+03  1.05444563e+03  3.16e-07 4.00e-13  5.36e-04     0s
  18   1.09462216e+03  1.06576410e+03  1.39e-07 2.70e-13  2.78e-04     0s
  19   1.09239202e+03  1.06829786e+03  1.13e-07 3.25e-13  2.32e-04     0s
  20   1.08673502e+03  1.07623170e+03  4.97e-08 3.41e-13  1.01e-04     1s
  21   1.08354947e+03  1.08077048e+03  1.56e-08 2.65e-13  2.68e-05     1s
  22   1.08217877e+03  1.08174426e+03  1.83e-09 2.99e-13  4.19e-06     1s
  23   1.08202059e+03  1.08195990e+03  3.37e-10 3.63e-13  5.85e-07     1s
  24   1.08197975e+03  1.08197727e+03  8.36e-11 3.28e-13  2.39e-08     1s
  25   1.08197852e+03  1.08197852e+03  3.94e-11 4.33e-13  4.26e-13     1s

Barrier solved model in 25 iterations and 0.60 seconds (0.52 work units)
Optimal objective 1.08197852e+03

Crossover log...

    8368 DPushes remaining with DInf 0.0000000e+00                 1s
       0 DPushes remaining with DInf 0.0000000e+00                 1s

     585 PPushes remaining with PInf 0.0000000e+00                 1s
       0 PPushes remaining with PInf 0.0000000e+00                 1s

  Push phase complete: Pinf 0.0000000e+00, Dinf 3.0235074e-12      1s

Iteration    Objective       Primal Inf.    Dual Inf.      Time
    2257    1.0819785e+03   0.000000e+00   0.000000e+00      1s

Solved in 2257 iterations and 0.86 seconds (0.66 work units)
Optimal objective  1.081978521e+03

Gurobi 11.0.0 (linux64) logging started Wed Aug  7 00:29:49 2024

Set parameter LogFile to value "/lustre1/scratch/348/vsc34888/JointResearch/05.Models/06.Benchmarking/K.Investments_per_hour/IEEE118_mod1_ByStages_nc80/openStarNet_IEEE118_mod1_ByStages_nc80.log"
Set parameter Method to value 2
Set parameter MIPFocus to value 1
Set parameter Presolve to value 2
Set parameter RINS to value 100
Set parameter MIPGap to value 0.01
Set parameter Threads to value 36
Set parameter TimeLimit to value 259200
Set parameter IterationLimit to value 760000000
Gurobi Optimizer version 11.0.0 build v11.0.0rc2 (linux64 - "Rocky Linux 8.9 (Green Obsidian)")

CPU model: Intel(R) Xeon(R) Gold 6240 CPU @ 2.60GHz, instruction set [SSE2|AVX|AVX2|AVX512]
Thread count: 36 physical cores, 36 logical processors, using up to 36 threads

Optimize a model with 113683 rows, 83949 columns and 281788 nonzeros
Model fingerprint: 0x06f343b5
Coefficient statistics:
  Matrix range     [2e-03, 9e+03]
  Objective range  [1e+00, 1e+00]
  Bounds range     [1e-04, 3e+00]
  RHS range        [2e-04, 3e+00]
Presolve removed 86131 rows and 39454 columns
Presolve time: 0.16s
Presolved: 27552 rows, 45837 columns, 110380 nonzeros

Ordering time: 0.01s

Barrier statistics:
 AA' NZ     : 1.006e+05
 Factor NZ  : 3.723e+05 (roughly 30 MB of memory)
 Factor Ops : 5.643e+06 (less than 1 second per iteration)
 Threads    : 36

                  Objective                Residual
Iter       Primal          Dual         Primal    Dual     Compl     Time
   0   1.67142600e+07 -2.07092792e+08  9.65e+01 4.99e+01  1.06e+04     0s
   1   1.89080996e+06 -7.26036388e+07  9.75e+00 8.88e-13  1.41e+03     0s
   2   4.45923944e+05 -1.50656457e+07  1.49e+00 8.24e-13  2.22e+02     0s
   3   1.68353398e+05 -2.49291873e+06  5.26e-02 9.09e-13  2.76e+01     0s
   4   8.45946848e+04 -4.78933421e+05  1.20e-02 5.02e-13  5.67e+00     0s
   5   5.08784089e+04 -1.93633596e+05  5.77e-03 2.84e-13  2.45e+00     0s
   6   3.24550590e+04 -9.81896918e+04  2.83e-03 2.27e-13  1.30e+00     0s
   7   2.34377457e+04 -5.18872160e+04  1.50e-03 2.27e-13  7.51e-01     0s
   8   1.83959967e+04 -1.74760197e+04  8.34e-04 2.27e-13  3.57e-01     0s
   9   1.46427446e+04 -1.83124285e+03  4.00e-04 2.27e-13  1.64e-01     0s
  10   1.31244576e+04  4.09706000e+03  2.54e-04 2.27e-13  8.99e-02     0s
  11   1.16598324e+04  7.07643565e+03  1.30e-04 2.27e-13  4.56e-02     0s
  12   1.07416343e+04  8.83311001e+03  6.07e-05 2.27e-13  1.90e-02     0s
  13   1.03627603e+04  9.26232894e+03  3.43e-05 2.27e-13  1.10e-02     0s
  14   1.02438046e+04  9.46209070e+03  2.63e-05 2.27e-13  7.78e-03     0s
  15   1.00663084e+04  9.60755849e+03  1.46e-05 2.27e-13  4.57e-03     0s
  16   9.96763248e+03  9.71141356e+03  8.35e-06 2.27e-13  2.55e-03     0s
  17   9.90530303e+03  9.77760225e+03  4.48e-06 2.27e-13  1.27e-03     0s
  18   9.85314257e+03  9.81109599e+03  1.30e-06 3.41e-13  4.19e-04     0s
  19   9.84180266e+03  9.81905881e+03  6.45e-07 2.27e-13  2.26e-04     0s
  20   9.83559920e+03  9.82668191e+03  2.92e-07 2.27e-13  8.88e-05     0s
  21   9.83190726e+03  9.82841379e+03  9.27e-08 2.27e-13  3.48e-05     0s
  22   9.83030456e+03  9.82983994e+03  6.81e-09 4.55e-13  4.63e-06     0s
  23   9.83012660e+03  9.83009869e+03  1.37e-09 2.27e-13  2.78e-07     0s
  24   9.83011688e+03  9.83011488e+03  6.18e-10 2.27e-13  2.00e-08     1s
  25   9.83011584e+03  9.83011563e+03  1.92e-09 2.27e-13  2.09e-09     1s
  26   9.83011569e+03  9.83011569e+03  9.72e-10 2.27e-13  4.96e-12     1s

Barrier solved model in 26 iterations and 0.52 seconds (0.51 work units)
Optimal objective 9.83011569e+03

Crossover log...

    8090 DPushes remaining with DInf 0.0000000e+00                 1s
       0 DPushes remaining with DInf 0.0000000e+00                 1s

     597 PPushes remaining with PInf 0.0000000e+00                 1s
       0 PPushes remaining with PInf 0.0000000e+00                 1s

  Push phase complete: Pinf 0.0000000e+00, Dinf 2.3805879e-11      1s

Iteration    Objective       Primal Inf.    Dual Inf.      Time
    2551    9.8301157e+03   0.000000e+00   0.000000e+00      1s

Solved in 2551 iterations and 0.74 seconds (0.60 work units)
Optimal objective  9.830115693e+03

Gurobi 11.0.0 (linux64) logging started Wed Aug  7 00:30:04 2024

Set parameter LogFile to value "/lustre1/scratch/348/vsc34888/JointResearch/05.Models/06.Benchmarking/K.Investments_per_hour/IEEE118_mod1_ByStages_nc80/openStarNet_IEEE118_mod1_ByStages_nc80.log"
Set parameter Method to value 2
Set parameter MIPFocus to value 1
Set parameter Presolve to value 2
Set parameter RINS to value 100
Set parameter MIPGap to value 0.01
Set parameter Threads to value 36
Set parameter TimeLimit to value 259200
Set parameter IterationLimit to value 760000000
Gurobi Optimizer version 11.0.0 build v11.0.0rc2 (linux64 - "Rocky Linux 8.9 (Green Obsidian)")

CPU model: Intel(R) Xeon(R) Gold 6240 CPU @ 2.60GHz, instruction set [SSE2|AVX|AVX2|AVX512]
Thread count: 36 physical cores, 36 logical processors, using up to 36 threads

Optimize a model with 113683 rows, 83949 columns and 281788 nonzeros
Model fingerprint: 0x06f343b5
Coefficient statistics:
  Matrix range     [2e-03, 9e+03]
  Objective range  [1e+00, 1e+00]
  Bounds range     [1e-04, 3e+00]
  RHS range        [2e-04, 3e+00]
Presolve removed 86131 rows and 39454 columns
Presolve time: 0.16s
Presolved: 27552 rows, 45837 columns, 110380 nonzeros

Ordering time: 0.01s

Barrier statistics:
 AA' NZ     : 1.006e+05
 Factor NZ  : 3.723e+05 (roughly 30 MB of memory)
 Factor Ops : 5.643e+06 (less than 1 second per iteration)
 Threads    : 36

                  Objective                Residual
Iter       Primal          Dual         Primal    Dual     Compl     Time
   0   1.67142600e+07 -2.07092792e+08  9.65e+01 4.99e+01  1.06e+04     0s
   1   1.89080996e+06 -7.26036388e+07  9.75e+00 8.88e-13  1.41e+03     0s
   2   4.45923944e+05 -1.50656457e+07  1.49e+00 8.24e-13  2.22e+02     0s
   3   1.68353398e+05 -2.49291873e+06  5.26e-02 9.09e-13  2.76e+01     0s
   4   8.45946848e+04 -4.78933421e+05  1.20e-02 5.02e-13  5.67e+00     0s
   5   5.08784089e+04 -1.93633596e+05  5.77e-03 2.84e-13  2.45e+00     0s
   6   3.24550590e+04 -9.81896918e+04  2.83e-03 2.27e-13  1.30e+00     0s
   7   2.34377457e+04 -5.18872160e+04  1.50e-03 2.27e-13  7.51e-01     0s
   8   1.83959967e+04 -1.74760197e+04  8.34e-04 2.27e-13  3.57e-01     0s
   9   1.46427446e+04 -1.83124285e+03  4.00e-04 2.27e-13  1.64e-01     0s
  10   1.31244576e+04  4.09706000e+03  2.54e-04 2.27e-13  8.99e-02     0s
  11   1.16598324e+04  7.07643565e+03  1.30e-04 2.27e-13  4.56e-02     0s
  12   1.07416343e+04  8.83311001e+03  6.07e-05 2.27e-13  1.90e-02     0s
  13   1.03627603e+04  9.26232894e+03  3.43e-05 2.27e-13  1.10e-02     0s
  14   1.02438046e+04  9.46209070e+03  2.63e-05 2.27e-13  7.78e-03     0s
  15   1.00663084e+04  9.60755849e+03  1.46e-05 2.27e-13  4.57e-03     0s
  16   9.96763248e+03  9.71141356e+03  8.35e-06 2.27e-13  2.55e-03     0s
  17   9.90530303e+03  9.77760225e+03  4.48e-06 2.27e-13  1.27e-03     0s
  18   9.85314257e+03  9.81109599e+03  1.30e-06 3.41e-13  4.19e-04     0s
  19   9.84180266e+03  9.81905881e+03  6.45e-07 2.27e-13  2.26e-04     0s
  20   9.83559920e+03  9.82668191e+03  2.92e-07 2.27e-13  8.88e-05     0s
  21   9.83190726e+03  9.82841379e+03  9.27e-08 2.27e-13  3.48e-05     0s
  22   9.83030456e+03  9.82983994e+03  6.81e-09 4.55e-13  4.63e-06     0s
  23   9.83012660e+03  9.83009869e+03  1.37e-09 2.27e-13  2.78e-07     1s
  24   9.83011688e+03  9.83011488e+03  6.18e-10 2.27e-13  2.00e-08     1s
  25   9.83011584e+03  9.83011563e+03  1.92e-09 2.27e-13  2.09e-09     1s
  26   9.83011569e+03  9.83011569e+03  9.72e-10 2.27e-13  4.96e-12     1s

Barrier solved model in 26 iterations and 0.54 seconds (0.51 work units)
Optimal objective 9.83011569e+03

Crossover log...

    8090 DPushes remaining with DInf 0.0000000e+00                 1s
       0 DPushes remaining with DInf 0.0000000e+00                 1s

     597 PPushes remaining with PInf 0.0000000e+00                 1s
       0 PPushes remaining with PInf 0.0000000e+00                 1s

  Push phase complete: Pinf 0.0000000e+00, Dinf 2.3805879e-11      1s

Iteration    Objective       Primal Inf.    Dual Inf.      Time
    2551    9.8301157e+03   0.000000e+00   0.000000e+00      1s

Solved in 2551 iterations and 0.75 seconds (0.60 work units)
Optimal objective  9.830115693e+03
